outputs/models/Extended_LCD_ILP_2_19_3_11.lp
\ Model mip1
\ LP format - for model browsing. Use MPS format to capture full model detail.
\ Signature: 0xb46f419384b8507a
Maximize
  A[0] + A[1] + A[2] + A[3] + A[4] + A[5] + A[6] + A[7] + A[8] + A[9]
   + A[10] + A[11] + A[12] + A[13] + A[14] + A[15] + A[16]
Subject To
 R0: 13 A[0] + 11 A[1] + 9 A[2] + 7 A[3] + 5 A[4] + 3 A[5] + A[6] - A[7]
   - 3 A[8] - 5 A[9] - 7 A[10] - 9 A[11] - 11 A[12] - 13 A[13] - 15 A[14]
   - 17 A[15] - 19 A[16] = -19
 R1: 75 A[0] + 51 A[1] + 31 A[2] + 15 A[3] + 3 A[4] - 5 A[5] - 9 A[6]
   - 9 A[7] - 5 A[8] + 3 A[9] + 15 A[10] + 31 A[11] + 51 A[12] + 75 A[13]
   + 103 A[14] + 135 A[15] + 171 A[16] = -171
 R2: 247 A[0] + 121 A[1] + 39 A[2] - 7 A[3] - 25 A[4] - 23 A[5] - 9 A[6]
   + 9 A[7] + 23 A[8] + 25 A[9] + 7 A[10] - 39 A[11] - 121 A[12]
   - 247 A[13] - 425 A[14] - 663 A[15] - 969 A[16] = -969
 R3: 484 A[0] + 116 A[1] - 44 A[2] - 76 A[3] - 44 A[4] + 4 A[5] + 36 A[6]
   + 36 A[7] + 4 A[8] - 44 A[9] - 76 A[10] - 44 A[11] + 116 A[12]
   + 484 A[13] + 1156 A[14] + 2244 A[15] + 3876 A[16] = -3876
 R4: 468 A[0] - 132 A[1] - 204 A[2] - 84 A[3] + 36 A[4] + 76 A[5] + 36 A[6]
   - 36 A[7] - 76 A[8] - 36 A[9] + 84 A[10] + 204 A[11] + 132 A[12]
   - 468 A[13] - 2108 A[14] - 5508 A[15] - 11628 A[16] >= -11628
 R5: - 196 A[0] - 532 A[1] - 196 A[2] + 92 A[3] + 140 A[4] + 28 A[5]
   - 84 A[6] - 84 A[7] + 28 A[8] + 140 A[9] + 92 A[10] - 196 A[11]
   - 532 A[12] - 196 A[13] + 2380 A[14] + 9996 A[15] + 27132 A[16]
   >= -27132
 R6: - 1300 A[0] - 572 A[1] + 156 A[2] + 260 A[3] + 28 A[4] - 140 A[5]
   - 84 A[6] + 84 A[7] + 140 A[8] - 28 A[9] - 260 A[10] - 156 A[11]
   + 572 A[12] + 1300 A[13] - 884 A[14] - 13260 A[15] - 50388 A[16]
   >= -50388
 R7: - 1794 A[0] + 78 A[1] + 494 A[2] + 78 A[3] - 210 A[4] - 98 A[5]
   + 126 A[6] + 126 A[7] - 98 A[8] - 210 A[9] + 78 A[10] + 494 A[11]
   + 78 A[12] - 1794 A[13] - 2210 A[14] + 11934 A[15] + 75582 A[16]
   >= -75582
 R8: - 858 A[0] + 858 A[1] + 286 A[2] - 286 A[3] - 154 A[4] + 154 A[5]
   + 126 A[6] - 126 A[7] - 154 A[8] + 154 A[9] + 286 A[10] - 286 A[11]
   - 858 A[12] + 858 A[13] + 4862 A[14] - 4862 A[15] - 92378 A[16]
   >= -92378
 R9: 858 A[0] + 858 A[1] - 286 A[2] - 286 A[3] + 154 A[4] + 154 A[5]
   - 126 A[6] - 126 A[7] + 154 A[8] + 154 A[9] - 286 A[10] - 286 A[11]
   + 858 A[12] + 858 A[13] - 4862 A[14] - 4862 A[15] + 92378 A[16]
   >= -92378
 R10: 1794 A[0] + 78 A[1] - 494 A[2] + 78 A[3] + 210 A[4] - 98 A[5]
   - 126 A[6] + 126 A[7] + 98 A[8] - 210 A[9] - 78 A[10] + 494 A[11]
   - 78 A[12] - 1794 A[13] + 2210 A[14] + 11934 A[15] - 75582 A[16]
   >= -75582
 R11: 1300 A[0] - 572 A[1] - 156 A[2] + 260 A[3] - 28 A[4] - 140 A[5]
   + 84 A[6] + 84 A[7] - 140 A[8] - 28 A[9] + 260 A[10] - 156 A[11]
   - 572 A[12] + 1300 A[13] + 884 A[14] - 13260 A[15] + 50388 A[16]
   >= -50388
 R12: 196 A[0] - 532 A[1] + 196 A[2] + 92 A[3] - 140 A[4] + 28 A[5]
   + 84 A[6] - 84 A[7] - 28 A[8] + 140 A[9] - 92 A[10] - 196 A[11]
   + 532 A[12] - 196 A[13] - 2380 A[14] + 9996 A[15] - 27132 A[16]
   >= -27132
 R13: - 468 A[0] - 132 A[1] + 204 A[2] - 84 A[3] - 36 A[4] + 76 A[5]
   - 36 A[6] - 36 A[7] + 76 A[8] - 36 A[9] - 84 A[10] + 204 A[11]
   - 132 A[12] - 468 A[13] + 2108 A[14] - 5508 A[15] + 11628 A[16]
   >= -11628
 R14: - 484 A[0] + 116 A[1] + 44 A[2] - 76 A[3] + 44 A[4] + 4 A[5]
   - 36 A[6] + 36 A[7] - 4 A[8] - 44 A[9] + 76 A[10] - 44 A[11] - 116 A[12]
   + 484 A[13] - 1156 A[14] + 2244 A[15] - 3876 A[16] >= -3876
 R15: - 247 A[0] + 121 A[1] - 39 A[2] - 7 A[3] + 25 A[4] - 23 A[5] + 9 A[6]
   + 9 A[7] - 23 A[8] + 25 A[9] - 7 A[10] - 39 A[11] + 121 A[12]
   - 247 A[13] + 425 A[14] - 663 A[15] + 969 A[16] >= -969
 R16: - 75 A[0] + 51 A[1] - 31 A[2] + 15 A[3] - 3 A[4] - 5 A[5] + 9 A[6]
   - 9 A[7] + 5 A[8] + 3 A[9] - 15 A[10] + 31 A[11] - 51 A[12] + 75 A[13]
   - 103 A[14] + 135 A[15] - 171 A[16] >= -171
 R17: - 13 A[0] + 11 A[1] - 9 A[2] + 7 A[3] - 5 A[4] + 3 A[5] - A[6] - A[7]
   + 3 A[8] - 5 A[9] + 7 A[10] - 9 A[11] + 11 A[12] - 13 A[13] + 15 A[14]
   - 17 A[15] + 19 A[16] >= -19
 R18: - A[0] + A[1] - A[2] + A[3] - A[4] + A[5] - A[6] + A[7] - A[8] + A[9]
   - A[10] + A[11] - A[12] + A[13] - A[14] + A[15] - A[16] >= -1
 R19: A[0] + A[1] + A[2] + A[3] + A[4] + A[5] + A[6] + A[7] + A[8] + A[9]
   + A[10] + A[11] + A[12] + A[13] + A[14] + A[15] + A[16] <= 969
 R20: A[0] + A[1] + A[2] + A[3] + A[4] + A[5] + A[6] + A[7] + A[8] + A[9]
   + A[10] + A[11] + A[12] + A[13] + A[14] + A[15] + A[16] <= 3876
 R21: 11160 A[0] + 11760 A[1] + 9784 A[2] + 11712 A[3] + 11592 A[4]
   + 11552 A[5] + 11592 A[6] + 11664 A[7] + 11704 A[8] + 11664 A[9]
   + 11544 A[10] + 11424 A[11] + 11496 A[12] + 12096 A[13] + 13736 A[14]
   + 17136 A[15] + 23256 A[16] >= 0
 R22: 27328 A[0] + 27664 A[1] + 27328 A[2] + 24992 A[3] + 26992 A[4]
   + 27104 A[5] + 27216 A[6] + 27216 A[7] + 27104 A[8] + 26992 A[9]
   + 27040 A[10] + 27328 A[11] + 27664 A[12] + 27328 A[13] + 24752 A[14]
   + 17136 A[15] >= 0
 R23: 51688 A[0] + 50960 A[1] + 50232 A[2] + 50128 A[3] + 48312 A[4]
   + 50528 A[5] + 50472 A[6] + 50304 A[7] + 50248 A[8] + 50416 A[9]
   + 50648 A[10] + 50544 A[11] + 49816 A[12] + 49088 A[13] + 51272 A[14]
   + 63648 A[15] + 100776 A[16] >= 0
 R24: 77376 A[0] + 75504 A[1] + 75088 A[2] + 75504 A[3] + 75792 A[4]
   + 73632 A[5] + 75456 A[6] + 75456 A[7] + 75680 A[8] + 75792 A[9]
   + 75504 A[10] + 75088 A[11] + 75504 A[12] + 77376 A[13] + 77792 A[14]
   + 63648 A[15] >= 0
 R25: 93236 A[0] + 91520 A[1] + 92092 A[2] + 92664 A[3] + 92532 A[4]
   + 92224 A[5] + 90204 A[6] + 92504 A[7] + 92532 A[8] + 92224 A[9]
   + 92092 A[10] + 92664 A[11] + 93236 A[12] + 91520 A[13] + 87516 A[14]
   + 97240 A[15] + 184756 A[16] >= 0
 R26: 91520 A[0] + 91520 A[1] + 92664 A[2] + 92664 A[3] + 92224 A[4]
   + 92224 A[5] + 92504 A[6] + 90456 A[7] + 92224 A[8] + 92224 A[9]
   + 92664 A[10] + 92664 A[11] + 91520 A[12] + 91520 A[13] + 97240 A[14]
   + 97240 A[15] >= 0
 R27: 73788 A[0] + 75504 A[1] + 76076 A[2] + 75504 A[3] + 75372 A[4]
   + 75680 A[5] + 75708 A[6] + 75456 A[7] + 73436 A[8] + 75792 A[9]
   + 75660 A[10] + 75088 A[11] + 75660 A[12] + 77376 A[13] + 73372 A[14]
   + 63648 A[15] + 151164 A[16] >= 0
 R28: 49088 A[0] + 50960 A[1] + 50544 A[2] + 50128 A[3] + 50416 A[4]
   + 50528 A[5] + 50304 A[6] + 50304 A[7] + 50528 A[8] + 48368 A[9]
   + 50128 A[10] + 50544 A[11] + 50960 A[12] + 49088 A[13] + 49504 A[14]
   + 63648 A[15] >= 0
 R29: 26936 A[0] + 27664 A[1] + 26936 A[2] + 27040 A[3] + 27272 A[4]
   + 27104 A[5] + 27048 A[6] + 27216 A[7] + 27160 A[8] + 26992 A[9]
   + 25176 A[10] + 27328 A[11] + 26600 A[12] + 27328 A[13] + 29512 A[14]
   + 17136 A[15] + 54264 A[16] >= 0
 R30: 12096 A[0] + 11760 A[1] + 11424 A[2] + 11712 A[3] + 11664 A[4]
   + 11552 A[5] + 11664 A[6] + 11664 A[7] + 11552 A[8] + 11664 A[9]
   + 11712 A[10] + 9376 A[11] + 11760 A[12] + 12096 A[13] + 9520 A[14]
   + 17136 A[15] >= 0
 R31: 4360 A[0] + 3760 A[1] + 3832 A[2] + 3952 A[3] + 3832 A[4] + 3872 A[5]
   + 3912 A[6] + 3840 A[7] + 3880 A[8] + 3920 A[9] + 3800 A[10]
   + 3920 A[11] + 1944 A[12] + 3392 A[13] + 5032 A[14] + 1632 A[15]
   + 7752 A[16] >= 0
 R32: 1216 A[0] + 848 A[1] + 1008 A[2] + 976 A[3] + 944 A[4] + 992 A[5]
   + 960 A[6] + 960 A[7] + 992 A[8] + 944 A[9] + 976 A[10] + 1008 A[11]
   + 848 A[12] - 832 A[13] + 544 A[14] + 1632 A[15] >= 0
 R33: 246 A[0] + 120 A[1] + 202 A[2] + 156 A[3] + 174 A[4] + 176 A[5]
   + 162 A[6] + 180 A[7] + 166 A[8] + 168 A[9] + 186 A[10] + 140 A[11]
   + 222 A[12] + 96 A[13] - 1774 A[14] + 36 A[15] + 342 A[16] >= 0
 R34: 32 A[0] + 8 A[1] + 28 A[2] + 12 A[3] + 24 A[4] + 16 A[5] + 20 A[6]
   + 20 A[7] + 16 A[8] + 24 A[9] + 12 A[10] + 28 A[11] + 8 A[12] + 32 A[13]
   + 4 A[14] - 2012 A[15] >= 0
 R35: 2 A[0] + 2 A[2] + 2 A[4] + 2 A[6] + 2 A[8] + 2 A[10] + 2 A[12]
   + 2 A[14] - 2046 A[16] >= 0
 R36: A[0] >= 1
Bounds
 A[0] <= 970
 A[1] <= 3877
 A[2] <= 11629
 A[3] <= 27133
 A[4] <= 50389
 A[5] <= 75583
 A[6] <= 92379
 A[7] <= 92379
 A[8] <= 75583
 A[9] <= 50389
 A[10] <= 27133
 A[11] <= 11629
 A[12] <= 3877
 A[13] <= 970
 A[14] <= 172
 A[15] <= 20
 A[16] <= 2
Generals
 A[0] A[1] A[2] A[3] A[4] A[5] A[6] A[7] A[8] A[9] A[10] A[11] A[12] A[13]
 A[14] A[15] A[16]
End
