outputs/models/Extended_LCD_ILP_2_19_3_11.mps
* Signature: 0xb46f419384b8507a
NAME mip1
OBJSENSE MAX
ROWS
 N  OBJ
 E  R0      
 E  R1      
 E  R2      
 E  R3      
 G  R4      
 G  R5      
 G  R6      
 G  R7      
 G  R8      
 G  R9      
 G  R10     
 G  R11     
 G  R12     
 G  R13     
 G  R14     
 G  R15     
 G  R16     
 G  R17     
 G  R18     
 L  R19     
 L  R20     
 G  R21     
 G  R22     
 G  R23     
 G  R24     
 G  R25     
 G  R26     
 G  R27     
 G  R28     
 G  R29     
 G  R30     
 G  R31     
 G  R32     
 G  R33     
 G  R34     
 G  R35     
 G  R36     
COLUMNS
    MARKER    'MARKER'                 'INTORG'
    A[0]      OBJ       1
    A[0]      R0        13
    A[0]      R1        75
    A[0]      R2        247
    A[0]      R3        484
    A[0]      R4        468
    A[0]      R5        -196
    A[0]      R6        -1300
    A[0]      R7        -1794
    A[0]      R8        -858
    A[0]      R9        858
    A[0]      R10       1794
    A[0]      R11       1300
    A[0]      R12       196
    A[0]      R13       -468
    A[0]      R14       -484
    A[0]      R15       -247
    A[0]      R16       -75
    A[0]      R17       -13
    A[0]      R18       -1
    A[0]      R19       1
    A[0]      R20       1
    A[0]      R21       11160
    A[0]      R22       27328
    A[0]      R23       51688
    A[0]      R24       77376
    A[0]      R25       93236
    A[0]      R26       91520
    A[0]      R27       73788
    A[0]      R28       49088
    A[0]      R29       26936
    A[0]      R30       12096
    A[0]      R31       4360
    A[0]      R32       1216
    A[0]      R33       246
    A[0]      R34       32
    A[0]      R35       2
    A[0]      R36       1
    A[1]      OBJ       1
    A[1]      R0        11
    A[1]      R1        51
    A[1]      R2        121
    A[1]      R3        116
    A[1]      R4        -132
    A[1]      R5        -532
    A[1]      R6        -572
    A[1]      R7        78
    A[1]      R8        858
    A[1]      R9        858
    A[1]      R10       78
    A[1]      R11       -572
    A[1]      R12       -532
    A[1]      R13       -132
    A[1]      R14       116
    A[1]      R15       121
    A[1]      R16       51
    A[1]      R17       11
    A[1]      R18       1
    A[1]      R19       1
    A[1]      R20       1
    A[1]      R21       11760
    A[1]      R22       27664
    A[1]      R23       50960
    A[1]      R24       75504
    A[1]      R25       91520
    A[1]      R26       91520
    A[1]      R27       75504
    A[1]      R28       50960
    A[1]      R29       27664
    A[1]      R30       11760
    A[1]      R31       3760
    A[1]      R32       848
    A[1]      R33       120
    A[1]      R34       8
    A[2]      OBJ       1
    A[2]      R0        9
    A[2]      R1        31
    A[2]      R2        39
    A[2]      R3        -44
    A[2]      R4        -204
    A[2]      R5        -196
    A[2]      R6        156
    A[2]      R7        494
    A[2]      R8        286
    A[2]      R9        -286
    A[2]      R10       -494
    A[2]      R11       -156
    A[2]      R12       196
    A[2]      R13       204
    A[2]      R14       44
    A[2]      R15       -39
    A[2]      R16       -31
    A[2]      R17       -9
    A[2]      R18       -1
    A[2]      R19       1
    A[2]      R20       1
    A[2]      R21       9784
    A[2]      R22       27328
    A[2]      R23       50232
    A[2]      R24       75088
    A[2]      R25       92092
    A[2]      R26       92664
    A[2]      R27       76076
    A[2]      R28       50544
    A[2]      R29       26936
    A[2]      R30       11424
    A[2]      R31       3832
    A[2]      R32       1008
    A[2]      R33       202
    A[2]      R34       28
    A[2]      R35       2
    A[3]      OBJ       1
    A[3]      R0        7
    A[3]      R1        15
    A[3]      R2        -7
    A[3]      R3        -76
    A[3]      R4        -84
    A[3]      R5        92
    A[3]      R6        260
    A[3]      R7        78
    A[3]      R8        -286
    A[3]      R9        -286
    A[3]      R10       78
    A[3]      R11       260
    A[3]      R12       92
    A[3]      R13       -84
    A[3]      R14       -76
    A[3]      R15       -7
    A[3]      R16       15
    A[3]      R17       7
    A[3]      R18       1
    A[3]      R19       1
    A[3]      R20       1
    A[3]      R21       11712
    A[3]      R22       24992
    A[3]      R23       50128
    A[3]      R24       75504
    A[3]      R25       92664
    A[3]      R26       92664
    A[3]      R27       75504
    A[3]      R28       50128
    A[3]      R29       27040
    A[3]      R30       11712
    A[3]      R31       3952
    A[3]      R32       976
    A[3]      R33       156
    A[3]      R34       12
    A[4]      OBJ       1
    A[4]      R0        5
    A[4]      R1        3
    A[4]      R2        -25
    A[4]      R3        -44
    A[4]      R4        36
    A[4]      R5        140
    A[4]      R6        28
    A[4]      R7        -210
    A[4]      R8        -154
    A[4]      R9        154
    A[4]      R10       210
    A[4]      R11       -28
    A[4]      R12       -140
    A[4]      R13       -36
    A[4]      R14       44
    A[4]      R15       25
    A[4]      R16       -3
    A[4]      R17       -5
    A[4]      R18       -1
    A[4]      R19       1
    A[4]      R20       1
    A[4]      R21       11592
    A[4]      R22       26992
    A[4]      R23       48312
    A[4]      R24       75792
    A[4]      R25       92532
    A[4]      R26       92224
    A[4]      R27       75372
    A[4]      R28       50416
    A[4]      R29       27272
    A[4]      R30       11664
    A[4]      R31       3832
    A[4]      R32       944
    A[4]      R33       174
    A[4]      R34       24
    A[4]      R35       2
    A[5]      OBJ       1
    A[5]      R0        3
    A[5]      R1        -5
    A[5]      R2        -23
    A[5]      R3        4
    A[5]      R4        76
    A[5]      R5        28
    A[5]      R6        -140
    A[5]      R7        -98
    A[5]      R8        154
    A[5]      R9        154
    A[5]      R10       -98
    A[5]      R11       -140
    A[5]      R12       28
    A[5]      R13       76
    A[5]      R14       4
    A[5]      R15       -23
    A[5]      R16       -5
    A[5]      R17       3
    A[5]      R18       1
    A[5]      R19       1
    A[5]      R20       1
    A[5]      R21       11552
    A[5]      R22       27104
    A[5]      R23       50528
    A[5]      R24       73632
    A[5]      R25       92224
    A[5]      R26       92224
    A[5]      R27       75680
    A[5]      R28       50528
    A[5]      R29       27104
    A[5]      R30       11552
    A[5]      R31       3872
    A[5]      R32       992
    A[5]      R33       176
    A[5]      R34       16
    A[6]      OBJ       1
    A[6]      R0        1
    A[6]      R1        -9
    A[6]      R2        -9
    A[6]      R3        36
    A[6]      R4        36
    A[6]      R5        -84
    A[6]      R6        -84
    A[6]      R7        126
    A[6]      R8        126
    A[6]      R9        -126
    A[6]      R10       -126
    A[6]      R11       84
    A[6]      R12       84
    A[6]      R13       -36
    A[6]      R14       -36
    A[6]      R15       9
    A[6]      R16       9
    A[6]      R17       -1
    A[6]      R18       -1
    A[6]      R19       1
    A[6]      R20       1
    A[6]      R21       11592
    A[6]      R22       27216
    A[6]      R23       50472
    A[6]      R24       75456
    A[6]      R25       90204
    A[6]      R26       92504
    A[6]      R27       75708
    A[6]      R28       50304
    A[6]      R29       27048
    A[6]      R30       11664
    A[6]      R31       3912
    A[6]      R32       960
    A[6]      R33       162
    A[6]      R34       20
    A[6]      R35       2
    A[7]      OBJ       1
    A[7]      R0        -1
    A[7]      R1        -9
    A[7]      R2        9
    A[7]      R3        36
    A[7]      R4        -36
    A[7]      R5        -84
    A[7]      R6        84
    A[7]      R7        126
    A[7]      R8        -126
    A[7]      R9        -126
    A[7]      R10       126
    A[7]      R11       84
    A[7]      R12       -84
    A[7]      R13       -36
    A[7]      R14       36
    A[7]      R15       9
    A[7]      R16       -9
    A[7]      R17       -1
    A[7]      R18       1
    A[7]      R19       1
    A[7]      R20       1
    A[7]      R21       11664
    A[7]      R22       27216
    A[7]      R23       50304
    A[7]      R24       75456
    A[7]      R25       92504
    A[7]      R26       90456
    A[7]      R27       75456
    A[7]      R28       50304
    A[7]      R29       27216
    A[7]      R30       11664
    A[7]      R31       3840
    A[7]      R32       960
    A[7]      R33       180
    A[7]      R34       20
    A[8]      OBJ       1
    A[8]      R0        -3
    A[8]      R1        -5
    A[8]      R2        23
    A[8]      R3        4
    A[8]      R4        -76
    A[8]      R5        28
    A[8]      R6        140
    A[8]      R7        -98
    A[8]      R8        -154
    A[8]      R9        154
    A[8]      R10       98
    A[8]      R11       -140
    A[8]      R12       -28
    A[8]      R13       76
    A[8]      R14       -4
    A[8]      R15       -23
    A[8]      R16       5
    A[8]      R17       3
    A[8]      R18       -1
    A[8]      R19       1
    A[8]      R20       1
    A[8]      R21       11704
    A[8]      R22       27104
    A[8]      R23       50248
    A[8]      R24       75680
    A[8]      R25       92532
    A[8]      R26       92224
    A[8]      R27       73436
    A[8]      R28       50528
    A[8]      R29       27160
    A[8]      R30       11552
    A[8]      R31       3880
    A[8]      R32       992
    A[8]      R33       166
    A[8]      R34       16
    A[8]      R35       2
    A[9]      OBJ       1
    A[9]      R0        -5
    A[9]      R1        3
    A[9]      R2        25
    A[9]      R3        -44
    A[9]      R4        -36
    A[9]      R5        140
    A[9]      R6        -28
    A[9]      R7        -210
    A[9]      R8        154
    A[9]      R9        154
    A[9]      R10       -210
    A[9]      R11       -28
    A[9]      R12       140
    A[9]      R13       -36
    A[9]      R14       -44
    A[9]      R15       25
    A[9]      R16       3
    A[9]      R17       -5
    A[9]      R18       1
    A[9]      R19       1
    A[9]      R20       1
    A[9]      R21       11664
    A[9]      R22       26992
    A[9]      R23       50416
    A[9]      R24       75792
    A[9]      R25       92224
    A[9]      R26       92224
    A[9]      R27       75792
    A[9]      R28       48368
    A[9]      R29       26992
    A[9]      R30       11664
    A[9]      R31       3920
    A[9]      R32       944
    A[9]      R33       168
    A[9]      R34       24
    A[10]     OBJ       1
    A[10]     R0        -7
    A[10]     R1        15
    A[10]     R2        7
    A[10]     R3        -76
    A[10]     R4        84
    A[10]     R5        92
    A[10]     R6        -260
    A[10]     R7        78
    A[10]     R8        286
    A[10]     R9        -286
    A[10]     R10       -78
    A[10]     R11       260
    A[10]     R12       -92
    A[10]     R13       -84
    A[10]     R14       76
    A[10]     R15       -7
    A[10]     R16       -15
    A[10]     R17       7
    A[10]     R18       -1
    A[10]     R19       1
    A[10]     R20       1
    A[10]     R21       11544
    A[10]     R22       27040
    A[10]     R23       50648
    A[10]     R24       75504
    A[10]     R25       92092
    A[10]     R26       92664
    A[10]     R27       75660
    A[10]     R28       50128
    A[10]     R29       25176
    A[10]     R30       11712
    A[10]     R31       3800
    A[10]     R32       976
    A[10]     R33       186
    A[10]     R34       12
    A[10]     R35       2
    A[11]     OBJ       1
    A[11]     R0        -9
    A[11]     R1        31
    A[11]     R2        -39
    A[11]     R3        -44
    A[11]     R4        204
    A[11]     R5        -196
    A[11]     R6        -156
    A[11]     R7        494
    A[11]     R8        -286
    A[11]     R9        -286
    A[11]     R10       494
    A[11]     R11       -156
    A[11]     R12       -196
    A[11]     R13       204
    A[11]     R14       -44
    A[11]     R15       -39
    A[11]     R16       31
    A[11]     R17       -9
    A[11]     R18       1
    A[11]     R19       1
    A[11]     R20       1
    A[11]     R21       11424
    A[11]     R22       27328
    A[11]     R23       50544
    A[11]     R24       75088
    A[11]     R25       92664
    A[11]     R26       92664
    A[11]     R27       75088
    A[11]     R28       50544
    A[11]     R29       27328
    A[11]     R30       9376
    A[11]     R31       3920
    A[11]     R32       1008
    A[11]     R33       140
    A[11]     R34       28
    A[12]     OBJ       1
    A[12]     R0        -11
    A[12]     R1        51
    A[12]     R2        -121
    A[12]     R3        116
    A[12]     R4        132
    A[12]     R5        -532
    A[12]     R6        572
    A[12]     R7        78
    A[12]     R8        -858
    A[12]     R9        858
    A[12]     R10       -78
    A[12]     R11       -572
    A[12]     R12       532
    A[12]     R13       -132
    A[12]     R14       -116
    A[12]     R15       121
    A[12]     R16       -51
    A[12]     R17       11
    A[12]     R18       -1
    A[12]     R19       1
    A[12]     R20       1
    A[12]     R21       11496
    A[12]     R22       27664
    A[12]     R23       49816
    A[12]     R24       75504
    A[12]     R25       93236
    A[12]     R26       91520
    A[12]     R27       75660
    A[12]     R28       50960
    A[12]     R29       26600
    A[12]     R30       11760
    A[12]     R31       1944
    A[12]     R32       848
    A[12]     R33       222
    A[12]     R34       8
    A[12]     R35       2
    A[13]     OBJ       1
    A[13]     R0        -13
    A[13]     R1        75
    A[13]     R2        -247
    A[13]     R3        484
    A[13]     R4        -468
    A[13]     R5        -196
    A[13]     R6        1300
    A[13]     R7        -1794
    A[13]     R8        858
    A[13]     R9        858
    A[13]     R10       -1794
    A[13]     R11       1300
    A[13]     R12       -196
    A[13]     R13       -468
    A[13]     R14       484
    A[13]     R15       -247
    A[13]     R16       75
    A[13]     R17       -13
    A[13]     R18       1
    A[13]     R19       1
    A[13]     R20       1
    A[13]     R21       12096
    A[13]     R22       27328
    A[13]     R23       49088
    A[13]     R24       77376
    A[13]     R25       91520
    A[13]     R26       91520
    A[13]     R27       77376
    A[13]     R28       49088
    A[13]     R29       27328
    A[13]     R30       12096
    A[13]     R31       3392
    A[13]     R32       -832
    A[13]     R33       96
    A[13]     R34       32
    A[14]     OBJ       1
    A[14]     R0        -15
    A[14]     R1        103
    A[14]     R2        -425
    A[14]     R3        1156
    A[14]     R4        -2108
    A[14]     R5        2380
    A[14]     R6        -884
    A[14]     R7        -2210
    A[14]     R8        4862
    A[14]     R9        -4862
    A[14]     R10       2210
    A[14]     R11       884
    A[14]     R12       -2380
    A[14]     R13       2108
    A[14]     R14       -1156
    A[14]     R15       425
    A[14]     R16       -103
    A[14]     R17       15
    A[14]     R18       -1
    A[14]     R19       1
    A[14]     R20       1
    A[14]     R21       13736
    A[14]     R22       24752
    A[14]     R23       51272
    A[14]     R24       77792
    A[14]     R25       87516
    A[14]     R26       97240
    A[14]     R27       73372
    A[14]     R28       49504
    A[14]     R29       29512
    A[14]     R30       9520
    A[14]     R31       5032
    A[14]     R32       544
    A[14]     R33       -1774
    A[14]     R34       4
    A[14]     R35       2
    A[15]     OBJ       1
    A[15]     R0        -17
    A[15]     R1        135
    A[15]     R2        -663
    A[15]     R3        2244
    A[15]     R4        -5508
    A[15]     R5        9996
    A[15]     R6        -13260
    A[15]     R7        11934
    A[15]     R8        -4862
    A[15]     R9        -4862
    A[15]     R10       11934
    A[15]     R11       -13260
    A[15]     R12       9996
    A[15]     R13       -5508
    A[15]     R14       2244
    A[15]     R15       -663
    A[15]     R16       135
    A[15]     R17       -17
    A[15]     R18       1
    A[15]     R19       1
    A[15]     R20       1
    A[15]     R21       17136
    A[15]     R22       17136
    A[15]     R23       63648
    A[15]     R24       63648
    A[15]     R25       97240
    A[15]     R26       97240
    A[15]     R27       63648
    A[15]     R28       63648
    A[15]     R29       17136
    A[15]     R30       17136
    A[15]     R31       1632
    A[15]     R32       1632
    A[15]     R33       36
    A[15]     R34       -2012
    A[16]     OBJ       1
    A[16]     R0        -19
    A[16]     R1        171
    A[16]     R2        -969
    A[16]     R3        3876
    A[16]     R4        -11628
    A[16]     R5        27132
    A[16]     R6        -50388
    A[16]     R7        75582
    A[16]     R8        -92378
    A[16]     R9        92378
    A[16]     R10       -75582
    A[16]     R11       50388
    A[16]     R12       -27132
    A[16]     R13       11628
    A[16]     R14       -3876
    A[16]     R15       969
    A[16]     R16       -171
    A[16]     R17       19
    A[16]     R18       -1
    A[16]     R19       1
    A[16]     R20       1
    A[16]     R21       23256
    A[16]     R23       100776
    A[16]     R25       184756
    A[16]     R27       151164
    A[16]     R29       54264
    A[16]     R31       7752
    A[16]     R33       342
    A[16]     R35       -2046
    MARKER    'MARKER'                 'INTEND'
RHS
    RHS1      R0        -19
    RHS1      R1        -171
    RHS1      R2        -969
    RHS1      R3        -3876
    RHS1      R4        -11628
    RHS1      R5        -27132
    RHS1      R6        -50388
    RHS1      R7        -75582
    RHS1      R8        -92378
    RHS1      R9        -92378
    RHS1      R10       -75582
    RHS1      R11       -50388
    RHS1      R12       -27132
    RHS1      R13       -11628
    RHS1      R14       -3876
    RHS1      R15       -969
    RHS1      R16       -171
    RHS1      R17       -19
    RHS1      R18       -1
    RHS1      R19       969
    RHS1      R20       3876
    RHS1      R36       1
BOUNDS
 UP BND1      A[0]      970
 UP BND1      A[1]      3877
 UP BND1      A[2]      11629
 UP BND1      A[3]      27133
 UP BND1      A[4]      50389
 UP BND1      A[5]      75583
 UP BND1      A[6]      92379
 UP BND1      A[7]      92379
 UP BND1      A[8]      75583
 UP BND1      A[9]      50389
 UP BND1      A[10]     27133
 UP BND1      A[11]     11629
 UP BND1      A[12]     3877
 UP BND1      A[13]     970
 UP BND1      A[14]     172
 UP BND1      A[15]     20
 UP BND1      A[16]     2
ENDATA
